proyfinal/src/viki/013/experimentInOfficeAgust.take6.output/78653038-4d6a-44c3-aa8b-71dd222c0a0e.als.out
Reading from standard input... Use '--help' for help.
============================[ Problem Statistics ]=============================
|                                                                             |
|  Number of variables:         87638                                         |
|  Number of clauses:          161767                                         |
|  Parse time:                   0.03 s                                       |
|                                                                             |
============================[ Search Statistics ]==============================
| Conflicts |          ORIGINAL         |          LEARNT          | Progress |
|           |    Vars  Clauses Literals |    Limit  Clauses Lit/Cl |          |
===============================================================================
|       100 |   62206   104556   261326 |    38337       99    166 | 29.019 % |
|       250 |   43691    50636   129233 |    42170      240     81 | 50.146 % |
|       475 |   43691    50636   129233 |    46388      465     55 | 50.146 % |
|       812 |   43690    50620   129200 |    51026      801     45 | 50.147 % |
|      1318 |   43682    50579   129093 |    56129     1250     37 | 50.156 % |
|      2077 |   43682    50579   129093 |    61742     2009     34 | 50.156 % |
===============================================================================
restarts              : 15
conflicts             : 3087           (11239 /sec)
decisions             : 9970           (0.00 % random) (36297 /sec)
propagations          : 3874671        (14106127 /sec)
conflict literals     : 93426          (31.62 % deleted)
Memory used           : 20.10 MB
CPU time              : 0.27468 s

UNSATISFIABLE
